
Welcome to IBM(R) ILOG(R) CPLEX(R) Interactive Optimizer 22.1.1.0
  with Simplex, Mixed Integer & Barrier Optimizers
5725-A06 5725-A29 5724-Y48 5724-Y49 5724-Y54 5724-Y55 5655-Y21
Copyright IBM Corp. 1988, 2022.  All Rights Reserved.

Type 'help' for a list of available commands.
Type 'help' followed by a command name for more
information on commands.

CPLEX> Selected objective sense:  MINIMIZE
Selected objective  name:  00000000
Selected RHS        name:  RHS1
Selected bound      name:  BOUND
Problem 'ee.mps' read.
Read time = 0.03 sec. (3.14 ticks)
CPLEX> New value for time limit in seconds: 7200
CPLEX> New value for parallel optimization mode: -1
CPLEX> New value for default parallel thread count: 40
CPLEX> New value for mixed integer optimality gap tolerance: 1e-13
CPLEX> Version identifier: 22.1.1.0 | 2022-11-28 | 9160aff4d
CPXPARAM_Threads                                 40
CPXPARAM_Parallel                                -1
CPXPARAM_TimeLimit                               7200
CPXPARAM_MIP_Tolerances_MIPGap                   1e-13
Found incumbent of value 0.000000 after 0.00 sec. (0.31 ticks)
Tried aggregator 3 times.
MIP Presolve eliminated 755 rows and 3849 columns.
MIP Presolve modified 5559 coefficients.
Aggregator did 629 substitutions.
Reduced MIP has 3133 rows, 6748 columns, and 24525 nonzeros.
Reduced MIP has 6748 binaries, 0 generals, 0 SOSs, and 0 indicators.
Presolve time = 0.07 sec. (74.66 ticks)
Probing fixed 52 vars, tightened 0 bounds.
Probing time = 0.05 sec. (24.31 ticks)
Tried aggregator 2 times.
Detecting symmetries...
MIP Presolve eliminated 11 rows and 62 columns.
Aggregator did 10 substitutions.
Reduced MIP has 3112 rows, 6673 columns, and 24244 nonzeros.
Reduced MIP has 6673 binaries, 0 generals, 0 SOSs, and 0 indicators.
Presolve time = 0.04 sec. (42.99 ticks)
Probing time = 0.03 sec. (8.30 ticks)
Clique table members: 15943.
MIP emphasis: balance optimality and feasibility.
MIP search method: dynamic search.
Parallel mode: opportunistic, using up to 40 threads.
Root relaxation solution time = 0.07 sec. (58.04 ticks)

        Nodes                                         Cuts/
   Node  Left     Objective  IInf  Best Integer    Best Bound    ItCnt     Gap

*     0+    0                            0.0000  -1.31000e+13              --- 
*     0+    0                      -7.59000e+12  -1.31000e+13            72.60%
      0     0  -1.30900e+13   106  -7.59000e+12  -1.30900e+13     1704   72.46%
*     0+    0                      -9.79000e+12  -1.30900e+13            33.71%
*     0+    0                      -1.30900e+13  -1.30900e+13             0.00%
      0     0  -1.30900e+13   111  -1.30900e+13     Cuts: 124     1990    0.00%
*     0+    0                      -1.30900e+13  -1.30900e+13             0.00%
      0     0  -1.30900e+13   135  -1.30900e+13      Cuts: 84     2096    0.00%
*     0+    0                      -1.30900e+13  -1.30900e+13             0.00%
      0     0  -1.00000e+75     0  -1.30900e+13  -1.30900e+13     2096    0.00%
*     0+    0                      -1.30900e+13  -1.30900e+13             0.00%
      0     2  -1.30900e+13   135  -1.30900e+13  -1.30900e+13     2096    0.00%
Elapsed time = 1.64 sec. (822.89 ticks, tree = 0.02 MB, solutions = 7)
*    13+   25                      -1.30900e+13  -1.30900e+13             0.00%
    666    72  -1.30900e+13   107  -1.30900e+13  -1.30900e+13    14331    0.00%
   1192   222        cutoff        -1.30900e+13  -1.30900e+13    43051    0.00%
   1563   389  -1.30900e+13   106  -1.30900e+13  -1.30900e+13    80096    0.00%
   2140   483  -1.30900e+13   148  -1.30900e+13  -1.30900e+13   107409    0.00%
   2668   486  -1.30900e+13   146  -1.30900e+13  -1.30900e+13   107694    0.00%
   3279   553  -1.30900e+13   167  -1.30900e+13  -1.30900e+13   141313    0.00%
   3833   526  -1.30900e+13   157  -1.30900e+13  -1.30900e+13   182042    0.00%
   4357   512  -1.30900e+13   183  -1.30900e+13  -1.30900e+13   191193    0.00%
   4820   655  -1.30900e+13   127  -1.30900e+13  -1.30900e+13   286929    0.00%
   6811  1098        cutoff        -1.30900e+13  -1.30900e+13   522055    0.00%
Elapsed time = 8.83 sec. (3925.62 ticks, tree = 6.89 MB, solutions = 27)
   9908  1214  -1.30900e+13    50  -1.30900e+13  -1.30900e+13   570201    0.00%
  12748  1953  -1.30900e+13   190  -1.30900e+13  -1.30900e+13   827621    0.00%
  14895  2278  -1.30900e+13    39  -1.30900e+13  -1.30900e+13   935851    0.00%

Performing restart 1

Repeating presolve.
Tried aggregator 2 times.
MIP Presolve eliminated 467 rows and 1713 columns.
MIP Presolve added 4 rows and 0 columns.
MIP Presolve modified 1667 coefficients.
Aggregator did 224 substitutions.
Reduced MIP has 2381 rows, 4716 columns, and 17005 nonzeros.
Reduced MIP has 4716 binaries, 0 generals, 0 SOSs, and 0 indicators.
Presolve time = 0.06 sec. (50.89 ticks)
Tried aggregator 2 times.
MIP Presolve eliminated 48 rows and 111 columns.
MIP Presolve modified 2 coefficients.
Aggregator did 26 substitutions.
Reduced MIP has 2307 rows, 4573 columns, and 16464 nonzeros.
Reduced MIP has 4573 binaries, 0 generals, 0 SOSs, and 0 indicators.
Presolve time = 0.03 sec. (28.15 ticks)
Tried aggregator 1 time.
MIP Presolve eliminated 8 rows and 14 columns.
Reduced MIP has 2299 rows, 4559 columns, and 16426 nonzeros.
Reduced MIP has 4559 binaries, 0 generals, 0 SOSs, and 0 indicators.
Presolve time = 0.02 sec. (15.76 ticks)
Represolve time = 0.28 sec. (167.21 ticks)
  15347     0  -1.30900e+13   244  -1.30900e+13      Cuts: 22  1468305    0.00%
  15347     0  -1.30900e+13   219  -1.30900e+13      Cuts: 32  1468374    0.00%
  15347     0  -1.30900e+13   270  -1.30900e+13      Cuts: 33  1468645    0.00%
  15347     0  -1.30900e+13   274  -1.30900e+13      Cuts: 41  1468842    0.00%
  15347     0  -1.30900e+13   390  -1.30900e+13      Cuts: 31  1469068    0.00%
  15347     0  -1.30900e+13   315  -1.30900e+13      Cuts: 37  1469238    0.00%
  15347     0  -1.30900e+13   304  -1.30900e+13      Cuts: 26  1469498    0.00%
  15347     0  -1.30900e+13   311  -1.30900e+13      Cuts: 29  1469724    0.00%
  15347     0  -1.30900e+13   309  -1.30900e+13      Cuts: 49  1469997    0.00%

Repeating presolve.
Tried aggregator 2 times.
MIP Presolve eliminated 1796 rows and 3675 columns.
MIP Presolve modified 95 coefficients.
Aggregator did 200 substitutions.
Reduced MIP has 294 rows, 656 columns, and 2141 nonzeros.
Reduced MIP has 656 binaries, 0 generals, 0 SOSs, and 0 indicators.
Presolve time = 0.01 sec. (8.50 ticks)
Tried aggregator 1 time.
Reduced MIP has 294 rows, 656 columns, and 2141 nonzeros.
Reduced MIP has 656 binaries, 0 generals, 0 SOSs, and 0 indicators.
Presolve time = 0.00 sec. (1.49 ticks)
Represolve time = 0.04 sec. (43.60 ticks)
  15347     0  -1.30900e+13   183  -1.30900e+13      Cuts: 61  1470909    0.00%
  15347     0  -1.30900e+13   179  -1.30900e+13      Cuts: 51  1470968    0.00%
  15347     0  -1.30900e+13    93  -1.30900e+13      Cuts: 51  1471059    0.00%
  15347     0  -1.30900e+13   183  -1.30900e+13      Cuts: 24  1471114    0.00%

Repeating presolve.
Tried aggregator 2 times.
MIP Presolve eliminated 98 rows and 355 columns.
MIP Presolve modified 120 coefficients.
Aggregator did 31 substitutions.
Reduced MIP has 165 rows, 270 columns, and 905 nonzeros.
Reduced MIP has 270 binaries, 0 generals, 0 SOSs, and 0 indicators.
Presolve time = 0.00 sec. (1.51 ticks)
Tried aggregator 1 time.
MIP Presolve eliminated 1 rows and 2 columns.
Reduced MIP has 164 rows, 268 columns, and 896 nonzeros.
Reduced MIP has 268 binaries, 0 generals, 0 SOSs, and 0 indicators.
Presolve time = 0.00 sec. (0.64 ticks)
Represolve time = 0.02 sec. (12.88 ticks)
* 15347     0      integral     0  -1.30900e+13                1471506    0.00%

Clique cuts applied:  29
Cover cuts applied:  156
Flow cuts applied:  1
Mixed integer rounding cuts applied:  9
Zero-half cuts applied:  33
Gomory fractional cuts applied:  17

Root node processing (before b&c):
  Real time             =    1.07 sec. (822.53 ticks)
Parallel b&c, 40 threads:
  Real time             =   12.27 sec. (8752.18 ticks)
  Sync time (average)   =    0.32 sec.
  Wait time (average)   =    0.00 sec.
                          ------------
Total (root+branch&cut) =   13.34 sec. (9574.70 ticks)

Solution pool: 27 solutions saved.

MIP - Integer optimal solution:  Objective = -1.3089999089e+13
Solution time =   13.45 sec.  Iterations = 1471506  Nodes = 15347
Deterministic time = 9574.74 ticks  (711.75 ticks/sec)

CPLEX> Solution 'p28' written to file 'ee.sol'.
CPLEX> 